1643, 0, 0, 45, 0
1644, 0, 1, 66, 2
1645, 0, 2, 83, 3
1646, 0, 3, 69, 1
1647, 1, 0, 89, 2
1648, 1, 1, 72, 0
1649, 1, 2, 31, 3
1650, 1, 3, 55, 1
1651, 2, 0, 85, 3
1652, 2, 1, 32, 0
1653, 2, 2, 92, 1
1654, 2, 3, 44, 2
1655, 3, 0, 77, 3
1656, 3, 1, 40, 0
1657, 3, 2, 81, 2
1658, 3, 3, 34, 1
